(set-logic HORN)
(set-info :source |
    Benchmark: C_VC
    Output by Princess (http://www.philipp.ruemmer.org/princess.shtml)
|)
(set-info :status sat)
(declare-heap Heap Addr HeapObject
 defObj
 ((HeapObject 0)) (
  (
   (O_Int (getInt Int))
   (O_UInt (getUInt Int))
   (O_Addr (getAddr Addr))
   (defObj)
  )
))
(declare-fun inv_main25 (Heap Int Int Int Int AddrRange AddrRange) Bool)
(declare-fun inv_main27 (Heap Int Int Int Int AddrRange AddrRange) Bool)
(declare-fun inv_main28 (Heap Int Int Int Int AddrRange AddrRange Int) Bool)
(declare-fun inv_main3 (Heap Int) Bool)
(declare-fun inv_main36 (Heap Int Int Int Int AddrRange AddrRange) Bool)
(declare-fun inv_main40 (Heap Int Int Int Int AddrRange AddrRange) Bool)
(declare-fun inv_main41 (Heap Int Int Int Int AddrRange AddrRange) Bool)
(declare-fun inv_main43 (Heap Int Int Int Int AddrRange AddrRange Int) Bool)
(declare-fun inv_main44 (Heap Int Int Int Int AddrRange AddrRange) Bool)
(declare-fun inv_main46 (Heap Int Int Int Int AddrRange AddrRange) Bool)
(assert (forall ((var0 Int) (var1 Heap)) (or (not (= var1 emptyHeap)) (inv_main3 var1 var0))))
(assert (forall ((var0 Int) (var1 AddrRange) (var2 AddrRange) (var3 Int) (var4 Int) (var5 Int) (var6 Int) (var7 Heap) (var8 Int) (var9 AddrRange) (var10 AddrRange) (var11 Int) (var12 Int) (var13 Int) (var14 Int) (var15 Heap)) (or (not (and (inv_main43 var15 var14 var13 var12 var11 var10 var9 var8) (and (and (and (is-O_Int (read var15 (nthAddrRange var9 var14))) (is-O_Int (read var15 (nthAddrRange var9 var14)))) (and (and (and (and (and (and (= var7 (write var15 (nthAddrRange var9 var14) (O_Int (+ var8 (* (- 1) var13))))) (= var6 var14)) (= var5 var13)) (= var4 var12)) (= var3 var11)) (= var2 var10)) (= var1 var9))) (= var0 (+ var6 1))))) (inv_main40 var7 var0 var5 var4 var3 var2 var1))))
(assert (forall ((var0 Int) (var1 Int) (var2 AddrRange) (var3 AddrRange) (var4 Int) (var5 Int) (var6 Heap) (var7 Int) (var8 Int) (var9 AddrRange) (var10 AddrRange) (var11 Int) (var12 Int) (var13 Int) (var14 Int) (var15 Heap)) (or (not (and (inv_main36 var15 var14 var13 var12 var11 var10 var9) (and (and (not (<= 0 (+ (+ var8 (* (- 1) (+ var7 1))) (- 1)))) (and (is-O_Int (read var15 (nthAddrRange var10 var14))) (and (and (and (and (and (and (and (= var6 var15) (= var7 var14)) (= var5 var13)) (= var4 var12)) (= var8 var11)) (= var3 var10)) (= var2 var9)) (= var1 (getInt (read var15 (nthAddrRange var10 var14))))))) (= var0 0)))) (inv_main40 var6 var0 var1 var4 var8 var3 var2))))
(assert (forall ((var0 Int) (var1 AddrRange) (var2 AddrRange) (var3 Int) (var4 Int) (var5 Int) (var6 Int) (var7 Heap)) (or (not (and (inv_main27 var7 var6 var5 var4 var3 var2 var1) (and (and (not (<= 0 (+ (+ var3 (* (- 1) (+ var6 1))) (- 1)))) (and (is-O_Int (read var7 (nthAddrRange var2 var6))) (not (<= 0 (+ (+ var5 (* (- 1) (getInt (read var7 (nthAddrRange var2 var6))))) (- 1)))))) (= var0 0)))) (inv_main40 var7 var0 var5 var4 var3 var2 var1))))
(assert (forall ((var0 Int) (var1 Int) (var2 Int) (var3 Int) (var4 Int) (var5 Int) (var6 Heap) (var7 Heap) (var8 Int) (var9 Int) (var10 Int) (var11 Int) (var12 Int) (var13 Int) (var14 Heap) (var15 AddrRange) (var16 AddrRange) (var17 AddrRange) (var18 Int) (var19 Int) (var20 Int) (var21 Int) (var22 Int) (var23 Int) (var24 Int) (var25 Int) (var26 Heap) (var27 Int) (var28 Int) (var29 Heap)) (or (not (and (inv_main3 var29 var28) (and (and (and (and (and (not (<= 0 (+ var27 (- 1)))) (and (and (and (and (and (and (= var26 (newBatchHeap (batchAlloc emptyHeap (O_Int var25) var24))) (= var23 var22)) (= var21 var20)) (= var19 var18)) (= var27 var24)) (= var17 var16)) (= var15 (newAddrRange (batchAlloc emptyHeap (O_Int var25) var24))))) (and (and (and (and (and (= var14 (newBatchHeap (batchAlloc emptyHeap (O_Int var13) (+ var12 1)))) (= var22 var11)) (= var20 var10)) (= var18 var9)) (= var24 var12)) (= var16 (newAddrRange (batchAlloc emptyHeap (O_Int var13) (+ var12 1)))))) (and (not (= var8 0)) (and (and (and (and (and (= var7 var6) (= var11 var5)) (= var10 var4)) (= var9 0)) (= var12 var3)) (or (and (and (<= 0 (+ (+ 10000 (* (- 1) var3)) (- 1))) (<= 0 (+ (+ var3 10000) (- 1)))) (= var8 1)) (and (not (and (<= 0 (+ (+ 10000 (* (- 1) var3)) (- 1))) (<= 0 (+ (+ var3 10000) (- 1))))) (= var8 0)))))) (and (not (= var2 0)) (and (and (and (= var6 var29) (= var5 var28)) (= var4 var1)) (or (and (and (<= 0 (+ (+ 10000 (* (- 1) var1)) (- 1))) (<= 0 (+ (+ var1 10000) (- 1)))) (= var2 1)) (and (not (and (<= 0 (+ (+ 10000 (* (- 1) var1)) (- 1))) (<= 0 (+ (+ var1 10000) (- 1))))) (= var2 0)))))) (= var0 0)))) (inv_main40 var26 var0 var21 var19 var27 var17 var15))))
(assert (forall ((var0 Int) (var1 AddrRange) (var2 AddrRange) (var3 Int) (var4 Int) (var5 Int) (var6 Int) (var7 Heap)) (or (not (and (inv_main40 var7 var6 var5 var4 var3 var2 var1) (and (and (<= 0 (+ var3 (- 1))) (not (<= 0 (+ (+ var3 (* (- 1) var6)) (- 1))))) (= var0 0)))) (inv_main46 var7 var0 var5 var4 var3 var2 var1))))
(assert (forall ((var0 Int) (var1 Int) (var2 Int) (var3 AddrRange) (var4 AddrRange) (var5 Int) (var6 Int) (var7 Heap) (var8 Int) (var9 Int) (var10 AddrRange) (var11 AddrRange) (var12 Int) (var13 Int) (var14 Int) (var15 Int) (var16 Heap)) (or (not (and (inv_main46 var16 var15 var14 var13 var12 var11 var10) (and (and (and (<= 0 (+ (+ var9 (* (- 1) (+ var8 1))) (- 1))) (and (is-O_Int (read var16 (nthAddrRange var10 var15))) (and (and (and (and (and (and (and (= var7 var16) (= var8 var15)) (= var6 var14)) (= var5 var13)) (= var9 var12)) (= var4 var11)) (= var3 var10)) (= var2 (+ var13 (getInt (read var16 (nthAddrRange var10 var15)))))))) (= var1 (+ var8 1))) (= var0 (+ var2 var8))))) (inv_main46 var7 var1 var6 var0 var9 var4 var3))))
(assert (forall ((var0 AddrRange) (var1 AddrRange) (var2 Int) (var3 Int) (var4 Int) (var5 Int) (var6 Heap)) (or (not (and (inv_main40 var6 var5 var4 var3 var2 var1 var0) (<= 0 (+ (+ var2 (* (- 1) var5)) (- 1))))) (inv_main41 var6 var5 var4 var3 var2 var1 var0))))
(assert (forall ((var0 Int) (var1 Int) (var2 AddrRange) (var3 AddrRange) (var4 Int) (var5 Int) (var6 Heap) (var7 Int) (var8 Int) (var9 AddrRange) (var10 AddrRange) (var11 Int) (var12 Int) (var13 Int) (var14 Int) (var15 Heap)) (or (not (and (inv_main36 var15 var14 var13 var12 var11 var10 var9) (and (and (<= 0 (+ (+ var8 (* (- 1) (+ var7 1))) (- 1))) (and (is-O_Int (read var15 (nthAddrRange var10 var14))) (and (and (and (and (and (and (and (= var6 var15) (= var7 var14)) (= var5 var13)) (= var4 var12)) (= var8 var11)) (= var3 var10)) (= var2 var9)) (= var1 (getInt (read var15 (nthAddrRange var10 var14))))))) (= var0 (+ var7 1))))) (inv_main25 var6 var0 var1 var4 var8 var3 var2))))
(assert (forall ((var0 Int) (var1 AddrRange) (var2 AddrRange) (var3 Int) (var4 Int) (var5 Int) (var6 Int) (var7 Heap)) (or (not (and (inv_main27 var7 var6 var5 var4 var3 var2 var1) (and (and (<= 0 (+ (+ var3 (* (- 1) (+ var6 1))) (- 1))) (and (is-O_Int (read var7 (nthAddrRange var2 var6))) (not (<= 0 (+ (+ var5 (* (- 1) (getInt (read var7 (nthAddrRange var2 var6))))) (- 1)))))) (= var0 (+ var6 1))))) (inv_main25 var7 var0 var5 var4 var3 var2 var1))))
(assert (forall ((var0 Int) (var1 Int) (var2 Int) (var3 Int) (var4 Int) (var5 Int) (var6 Heap) (var7 Heap) (var8 Int) (var9 Int) (var10 Int) (var11 Int) (var12 Int) (var13 Int) (var14 Heap) (var15 AddrRange) (var16 AddrRange) (var17 AddrRange) (var18 Int) (var19 Int) (var20 Int) (var21 Int) (var22 Int) (var23 Int) (var24 Int) (var25 Int) (var26 Heap) (var27 Int) (var28 Int) (var29 Heap)) (or (not (and (inv_main3 var29 var28) (and (and (and (and (and (<= 0 (+ var27 (- 1))) (and (and (and (and (and (and (= var26 (newBatchHeap (batchAlloc emptyHeap (O_Int var25) var24))) (= var23 var22)) (= var21 var20)) (= var19 var18)) (= var27 var24)) (= var17 var16)) (= var15 (newAddrRange (batchAlloc emptyHeap (O_Int var25) var24))))) (and (and (and (and (and (= var14 (newBatchHeap (batchAlloc emptyHeap (O_Int var13) (+ var12 1)))) (= var22 var11)) (= var20 var10)) (= var18 var9)) (= var24 var12)) (= var16 (newAddrRange (batchAlloc emptyHeap (O_Int var13) (+ var12 1)))))) (and (not (= var8 0)) (and (and (and (and (and (= var7 var6) (= var11 var5)) (= var10 var4)) (= var9 0)) (= var12 var3)) (or (and (and (<= 0 (+ (+ 10000 (* (- 1) var3)) (- 1))) (<= 0 (+ (+ var3 10000) (- 1)))) (= var8 1)) (and (not (and (<= 0 (+ (+ 10000 (* (- 1) var3)) (- 1))) (<= 0 (+ (+ var3 10000) (- 1))))) (= var8 0)))))) (and (not (= var2 0)) (and (and (and (= var6 var29) (= var5 var28)) (= var4 var1)) (or (and (and (<= 0 (+ (+ 10000 (* (- 1) var1)) (- 1))) (<= 0 (+ (+ var1 10000) (- 1)))) (= var2 1)) (and (not (and (<= 0 (+ (+ 10000 (* (- 1) var1)) (- 1))) (<= 0 (+ (+ var1 10000) (- 1))))) (= var2 0)))))) (= var0 0)))) (inv_main25 var26 var0 var21 var19 var27 var17 var15))))
(assert (forall ((var0 Int) (var1 AddrRange) (var2 AddrRange) (var3 Int) (var4 Int) (var5 Int) (var6 Int) (var7 Heap)) (or (not (and (inv_main25 var7 var6 var5 var4 var3 var2 var1) (and (is-O_Int (read var7 (nthAddrRange var2 var6))) (= var0 (getInt (read var7 (nthAddrRange var2 var6))))))) (inv_main28 var7 var6 var5 var4 var3 var2 var1 var0))))
(assert (forall ((var0 Int) (var1 AddrRange) (var2 AddrRange) (var3 Int) (var4 Int) (var5 Int) (var6 Int) (var7 Heap)) (or (not (and (inv_main40 var7 var6 var5 var4 var3 var2 var1) (and (and (not (<= 0 (+ var3 (- 1)))) (not (<= 0 (+ (+ var3 (* (- 1) var6)) (- 1))))) (= var0 0)))) (inv_main44 var7 var0 var5 var4 var3 var2 var1))))
(assert (forall ((var0 Int) (var1 Int) (var2 Int) (var3 AddrRange) (var4 AddrRange) (var5 Int) (var6 Int) (var7 Heap) (var8 Int) (var9 Int) (var10 AddrRange) (var11 AddrRange) (var12 Int) (var13 Int) (var14 Int) (var15 Int) (var16 Heap)) (or (not (and (inv_main46 var16 var15 var14 var13 var12 var11 var10) (and (and (and (not (<= 0 (+ (+ var9 (* (- 1) (+ var8 1))) (- 1)))) (and (is-O_Int (read var16 (nthAddrRange var10 var15))) (and (and (and (and (and (and (and (= var7 var16) (= var8 var15)) (= var6 var14)) (= var5 var13)) (= var9 var12)) (= var4 var11)) (= var3 var10)) (= var2 (+ var13 (getInt (read var16 (nthAddrRange var10 var15)))))))) (= var1 (+ var8 1))) (= var0 (+ var2 var8))))) (inv_main44 var7 var1 var6 var0 var9 var4 var3))))
(assert (forall ((var0 Int) (var1 AddrRange) (var2 AddrRange) (var3 Int) (var4 Int) (var5 Int) (var6 Int) (var7 Heap)) (or (not (and (inv_main41 var7 var6 var5 var4 var3 var2 var1) (and (is-O_Int (read var7 (nthAddrRange var2 var6))) (= var0 (getInt (read var7 (nthAddrRange var2 var6))))))) (inv_main43 var7 var6 var5 var4 var3 var2 var1 var0))))
(assert (forall ((var0 AddrRange) (var1 AddrRange) (var2 Int) (var3 Int) (var4 Int) (var5 Int) (var6 Heap) (var7 Int) (var8 AddrRange) (var9 AddrRange) (var10 Int) (var11 Int) (var12 Int) (var13 Int) (var14 Heap) (var15 Int) (var16 Int) (var17 AddrRange) (var18 AddrRange) (var19 Int) (var20 Int) (var21 Int) (var22 Int) (var23 Heap)) (or (not (and (inv_main28 var23 var22 var21 var20 var19 var18 var17 var16) (and (and (not (= var15 0)) (and (and (<= 0 (+ (+ 10000 (* (- 1) var16)) (- 1))) (is-O_Int (read var23 (nthAddrRange var18 var22)))) (and (and (and (and (and (and (and (= var14 var23) (= var13 var22)) (= var12 var21)) (= var11 var20)) (= var10 var19)) (= var9 var18)) (= var8 var17)) (= var7 (getInt (read var23 (nthAddrRange var18 var22))))))) (and (and (and (and (and (and (and (= var6 var14) (= var5 var13)) (= var4 var12)) (= var3 var11)) (= var2 var10)) (= var1 var9)) (= var0 var8)) (or (and (<= 0 (+ (+ var7 10000) (- 1))) (= var15 1)) (and (not (<= 0 (+ (+ var7 10000) (- 1)))) (= var15 0))))))) (inv_main27 var6 var5 var4 var3 var2 var1 var0))))
(assert (forall ((var0 AddrRange) (var1 AddrRange) (var2 Int) (var3 Int) (var4 Int) (var5 Int) (var6 Heap)) (or (not (and (inv_main27 var6 var5 var4 var3 var2 var1 var0) (and (is-O_Int (read var6 (nthAddrRange var1 var5))) (<= 0 (+ (+ var4 (* (- 1) (getInt (read var6 (nthAddrRange var1 var5))))) (- 1)))))) (inv_main36 var6 var5 var4 var3 var2 var1 var0))))
(assert (forall ((var0 AddrRange) (var1 AddrRange) (var2 Int) (var3 Int) (var4 Int) (var5 Int) (var6 Heap)) (not (and (inv_main25 var6 var5 var4 var3 var2 var1 var0) (not (is-O_Int (read var6 (nthAddrRange var1 var5))))))))
(assert (forall ((var0 AddrRange) (var1 AddrRange) (var2 Int) (var3 Int) (var4 Int) (var5 Int) (var6 Heap)) (not (and (inv_main25 var6 var5 var4 var3 var2 var1 var0) (and (is-O_Int (read var6 (nthAddrRange var1 var5))) (not (within var1 (nthAddrRange var1 var5))))))))
(assert (forall ((var0 Int) (var1 AddrRange) (var2 AddrRange) (var3 Int) (var4 Int) (var5 Int) (var6 Int) (var7 Heap)) (not (and (inv_main28 var7 var6 var5 var4 var3 var2 var1 var0) (and (<= 0 (+ (+ 10000 (* (- 1) var0)) (- 1))) (not (is-O_Int (read var7 (nthAddrRange var2 var6)))))))))
(assert (forall ((var0 Int) (var1 AddrRange) (var2 AddrRange) (var3 Int) (var4 Int) (var5 Int) (var6 Int) (var7 Heap)) (not (and (inv_main28 var7 var6 var5 var4 var3 var2 var1 var0) (and (and (<= 0 (+ (+ 10000 (* (- 1) var0)) (- 1))) (is-O_Int (read var7 (nthAddrRange var2 var6)))) (not (within var2 (nthAddrRange var2 var6))))))))
(assert (forall ((var0 AddrRange) (var1 AddrRange) (var2 Int) (var3 Int) (var4 Int) (var5 Int) (var6 Heap)) (not (and (inv_main27 var6 var5 var4 var3 var2 var1 var0) (not (is-O_Int (read var6 (nthAddrRange var1 var5))))))))
(assert (forall ((var0 AddrRange) (var1 AddrRange) (var2 Int) (var3 Int) (var4 Int) (var5 Int) (var6 Heap)) (not (and (inv_main27 var6 var5 var4 var3 var2 var1 var0) (and (is-O_Int (read var6 (nthAddrRange var1 var5))) (not (within var1 (nthAddrRange var1 var5))))))))
(assert (forall ((var0 AddrRange) (var1 AddrRange) (var2 Int) (var3 Int) (var4 Int) (var5 Int) (var6 Heap)) (not (and (inv_main36 var6 var5 var4 var3 var2 var1 var0) (not (is-O_Int (read var6 (nthAddrRange var1 var5))))))))
(assert (forall ((var0 AddrRange) (var1 AddrRange) (var2 Int) (var3 Int) (var4 Int) (var5 Int) (var6 Heap)) (not (and (inv_main36 var6 var5 var4 var3 var2 var1 var0) (and (is-O_Int (read var6 (nthAddrRange var1 var5))) (not (within var1 (nthAddrRange var1 var5))))))))
(assert (forall ((var0 AddrRange) (var1 AddrRange) (var2 Int) (var3 Int) (var4 Int) (var5 Int) (var6 Heap)) (not (and (inv_main41 var6 var5 var4 var3 var2 var1 var0) (not (is-O_Int (read var6 (nthAddrRange var1 var5))))))))
(assert (forall ((var0 AddrRange) (var1 AddrRange) (var2 Int) (var3 Int) (var4 Int) (var5 Int) (var6 Heap)) (not (and (inv_main41 var6 var5 var4 var3 var2 var1 var0) (and (is-O_Int (read var6 (nthAddrRange var1 var5))) (not (within var1 (nthAddrRange var1 var5))))))))
(assert (forall ((var0 Int) (var1 AddrRange) (var2 AddrRange) (var3 Int) (var4 Int) (var5 Int) (var6 Int) (var7 Heap)) (not (and (inv_main43 var7 var6 var5 var4 var3 var2 var1 var0) (not (is-O_Int (read var7 (nthAddrRange var1 var6))))))))
(assert (forall ((var0 Int) (var1 AddrRange) (var2 AddrRange) (var3 Int) (var4 Int) (var5 Int) (var6 Int) (var7 Heap)) (not (and (inv_main43 var7 var6 var5 var4 var3 var2 var1 var0) (and (is-O_Int (read var7 (nthAddrRange var1 var6))) (not (within var1 (nthAddrRange var1 var6))))))))
(assert (forall ((var0 Int) (var1 AddrRange) (var2 AddrRange) (var3 Int) (var4 Int) (var5 Int) (var6 Int) (var7 Heap)) (not (and (inv_main43 var7 var6 var5 var4 var3 var2 var1 var0) (and (is-O_Int (read var7 (nthAddrRange var1 var6))) (not (is-O_Int (read var7 (nthAddrRange var1 var6)))))))))
(assert (forall ((var0 AddrRange) (var1 AddrRange) (var2 Int) (var3 Int) (var4 Int) (var5 Int) (var6 Heap)) (not (and (inv_main46 var6 var5 var4 var3 var2 var1 var0) (not (is-O_Int (read var6 (nthAddrRange var0 var5))))))))
(assert (forall ((var0 AddrRange) (var1 AddrRange) (var2 Int) (var3 Int) (var4 Int) (var5 Int) (var6 Heap)) (not (and (inv_main46 var6 var5 var4 var3 var2 var1 var0) (and (is-O_Int (read var6 (nthAddrRange var0 var5))) (not (within var0 (nthAddrRange var0 var5))))))))
(assert (forall ((var0 AddrRange) (var1 AddrRange) (var2 Int) (var3 Int) (var4 Int) (var5 Int) (var6 Heap)) (not (and (inv_main44 var6 var5 var4 var3 var2 var1 var0) (not (<= 0 var3))))))
(check-sat)
